c random clauses
p cnf 8 32
-8 -7 -5 3 0
-8 -7 -4 3 0
-8 -6 -2 5 0
-8 -6 -1 3 0
-8 -4 3 6 0
-8 3 5 6 0
-7 -6 -5 -1 0
-7 -6 2 4 0
-7 -6 4 8 0
-7 -5 -3 4 0
-7 1 3 4 0
-7 1 3 8 0
-7 2 5 6 0
-6 -5 -1 3 0
-6 -5 3 8 0
-6 -4 5 7 0
-6 -3 1 2 0
-5 -4 -2 8 0
-5 2 4 8 0
-5 4 7 8 0
-4 -2 1 5 0
-4 -2 7 8 0
-3 -2 1 5 0
-3 -2 5 7 0
-3 -1 2 5 0
-3 1 4 7 0
-2 1 3 8 0
-2 4 6 8 0
-1 2 3 6 0
-1 2 3 7 0
1 2 3 8 0
1 2 5 8 0
